(set-logic QF_S)
(declare-fun var0 () Bool)
(declare-fun var1 () String)
(declare-fun var2 () Int)
(declare-fun var3 () Int)
(declare-fun var4 () Int)
(declare-fun var5 () String)
(declare-fun var6 () Int)
(declare-fun var7 () String)
(declare-fun var8 () String)
(assert (not (not var0)))
(assert (str.prefixof (str.substr var1 var2 var3) (str.at "9Rq" var4)))
(assert (str.suffixof (str.substr var5 var6 var4) (str.substr var7 var3 var6)))
(assert (<= (str.len var8) (str.len (str.at var7 var2))))
(check-sat)